c instance by G2
c solution = 010010000010111111110
c Known solution cost is 1046 
p cnf 21 30
w 84 29 51 31 1 9 94 36 56 59 60 55 87 42 42 97 16 74 51 69 3
10 -4 12 0
12 17 6 0
8 15 3 0
-20 19 3 0
6 -17 -10 0
6 7 11 0
-16 9 14 0
-2 15 -8 0
15 -8 10 0
-20 -9 4 0
18 -19 7 0
-12 -19 -15 0
-8 1 12 0
-14 -8 15 0
-18 -6 21 0
4 -2 13 0
5 -19 -13 0
-17 -1 12 0
12 -2 -10 0
-7 -14 -15 0
8 -4 -20 0
-18 -2 -6 0
7 -11 -12 0
-3 -19 1 0
2 -20 -5 0
8 -17 20 0
6 -19 -21 0
-10 7 8 0
20 -17 8 0
21 -19 16 0
